 Minimize
[ 1.0000000000000000 Z0 * Z119  ]
Subject to
c1: [ -75.0708333333332973 Z0 * Z1 -150.1416666666669926 Z0 * Z2 -280.2644444444439955 Z0 * Z3 -245.2313888888890006 Z0 * Z4 -55.0519444444444019 Z0 * Z5 -125.1180555555559977 Z0 * Z6 -260.2455555555559954 Z0 * Z7 -215.2030555555560056 Z0 * Z8 -30.0283333333333005 Z0 * Z9 -115.1086111111110029 Z0 * Z10 -240.2266666666670005 Z0 * Z11 -220.2077777777780057 Z0 * Z12 -55.0519444444444019 Z0 * Z13 -140.1322222222219978 Z0 * Z14 -245.2313888888890006 Z0 * Z15 -245.2313888888890006 Z0 * Z16 -55.0519444444444019 Z0 * Z17 -40.0377777777777979 Z0 * Z18 -150.1416666666669926 Z0 * Z19 -150.1416666666669926 Z0 * Z20 -40.0377777777777979 Z0 * Z21 -120.1133333333330029 Z0 * Z22 -230.2172222222220057 Z0 * Z23 -230.2172222222220057 Z0 * Z24 -30.0283333333333005 Z0 * Z25 -60.0566666666667004 Z0 * Z26 -175.1652777777779875 Z0 * Z27 -165.1558333333329927 Z0 * Z28 -1177.9708333333298924 Z0 * Z29 -2975.2755555555600040 Z0 * Z30 -1263.0511111111100035 Z0 * Z31 -1293.0794444444400142 Z0 * Z32 -1182.9755555555600495 Z0 * Z33 -1313.0983333333299470 Z0 * Z34 -1293.0794444444400142 Z0 * Z35 -2975.2755555555600040 Z0 * Z36 -3025.3227777777801748 Z0 * Z37 -2995.2944444444401597 Z0 * Z38 -1313.0983333333299470 Z0 * Z39 -1233.0227777777799929 Z0 * Z40 -1213.0038888888900601 Z0 * Z41 -1293.0794444444400142 Z0 * Z42 -1202.9944444444399778 Z0 * Z43 -1213.0038888888900601 Z0 * Z44 -150.1416666666669926 Z0 * Z45 -135.1274999999999977 Z0 * Z46 -100.0944444444439938 Z0 * Z47 -90.0849999999999937 Z0 * Z48 -40.0377777777777979 Z0 * Z49 -70.0661111111110984 Z0 * Z50 -45.0424999999999969 Z0 * Z51 -9345.0000000000000000 Z0 * Z64 -18690.0000000000000000 Z0 * Z65 -34888.0000000000000000 Z0 * Z66 -30527.0000000000000000 Z0 * Z67 -6853.0000000000000000 Z0 * Z68 -15575.0000000000000000 Z0 * Z69 -32396.0000000000000000 Z0 * Z70 -26789.0000000000000000 Z0 * Z71 -3738.0000000000000000 Z0 * Z72 -14329.0000000000000000 Z0 * Z73 -29904.0000000000000000 Z0 * Z74 -27412.0000000000000000 Z0 * Z75 -6853.0000000000000000 Z0 * Z76 -17444.0000000000000000 Z0 * Z77 -30527.0000000000000000 Z0 * Z78 -30527.0000000000000000 Z0 * Z79 -6853.0000000000000000 Z0 * Z80 -4984.0000000000000000 Z0 * Z81 -18690.0000000000000000 Z0 * Z82 -18690.0000000000000000 Z0 * Z83 -4984.0000000000000000 Z0 * Z84 -14952.0000000000000000 Z0 * Z85 -28658.0000000000000000 Z0 * Z86 -28658.0000000000000000 Z0 * Z87 -3738.0000000000000000 Z0 * Z88 -7476.0000000000000000 Z0 * Z89 -21805.0000000000000000 Z0 * Z90 -20559.0000000000000000 Z0 * Z91 -9345.0000000000000000 Z0 * Z92 -9968.0000000000000000 Z0 * Z93 -19936.0000000000000000 Z0 * Z94 -23674.0000000000000000 Z0 * Z95 -9968.0000000000000000 Z0 * Z96 -26166.0000000000000000 Z0 * Z97 -23674.0000000000000000 Z0 * Z98 -9968.0000000000000000 Z0 * Z99 -16198.0000000000000000 Z0 * Z100 -12460.0000000000000000 Z0 * Z101 -26166.0000000000000000 Z0 * Z102 -16198.0000000000000000 Z0 * Z103 -13706.0000000000000000 Z0 * Z104 -23674.0000000000000000 Z0 * Z105 -12460.0000000000000000 Z0 * Z106 -13706.0000000000000000 Z0 * Z107 -18690.0000000000000000 Z0 * Z108 -16821.0000000000000000 Z0 * Z109 -12460.0000000000000000 Z0 * Z110 -11214.0000000000000000 Z0 * Z111 -4984.0000000000000000 Z0 * Z112 -8722.0000000000000000 Z0 * Z113 -5607.0000000000000000 Z0 * Z114 -13972.0000000000000000 Z0 * Z115 -36676.0000000000000000 Z0 * Z116 -13972.0000000000000000 Z0 * Z117 -13972.0000000000000000 Z0 * Z118  + 1.0000000000000000 Z0 * Z119  ] = 0.000000
c2: [ -1.0000000000000000 Z0 * Z1 -1.0000000000000000 Z0 * Z2 -1.0000000000000000 Z0 * Z3 -1.0000000000000000 Z0 * Z4 -1.0000000000000000 Z0 * Z45  ] <= -20.000000
c3: [ -1.0000000000000000 Z0 * Z5 -1.0000000000000000 Z0 * Z6 -1.0000000000000000 Z0 * Z7 -1.0000000000000000 Z0 * Z8 -1.0000000000000000 Z0 * Z46  ] <= -50.000000
c4: [ -1.0000000000000000 Z0 * Z9 -1.0000000000000000 Z0 * Z10 -1.0000000000000000 Z0 * Z11 -1.0000000000000000 Z0 * Z12 -1.0000000000000000 Z0 * Z47  ] <= -47.500000
c5: [ -1.0000000000000000 Z0 * Z13 -1.0000000000000000 Z0 * Z14 -1.0000000000000000 Z0 * Z15 -1.0000000000000000 Z0 * Z16 -1.0000000000000000 Z0 * Z48  ] <= -28.000000
c6: [ -1.0000000000000000 Z0 * Z17 -1.0000000000000000 Z0 * Z18 -1.0000000000000000 Z0 * Z19 -1.0000000000000000 Z0 * Z20 -1.0000000000000000 Z0 * Z49  ] <= -100.000000
c7: [ -1.0000000000000000 Z0 * Z21 -1.0000000000000000 Z0 * Z22 -1.0000000000000000 Z0 * Z23 -1.0000000000000000 Z0 * Z24 -1.0000000000000000 Z0 * Z50  ] <= -30.000000
c8: [ -1.0000000000000000 Z0 * Z25 -1.0000000000000000 Z0 * Z26 -1.0000000000000000 Z0 * Z27 -1.0000000000000000 Z0 * Z28 -1.0000000000000000 Z0 * Z51  ] <= -25.000000
c9: [ 1.0000000000000000 Z0 * Z1  + 1.0000000000000000 Z0 * Z2  + 1.0000000000000000 Z0 * Z3  + 1.0000000000000000 Z0 * Z4  + 1.0000000000000000 Z0 * Z45  ] <= 20.000000
c10: [ 1.0000000000000000 Z0 * Z5  + 1.0000000000000000 Z0 * Z6  + 1.0000000000000000 Z0 * Z7  + 1.0000000000000000 Z0 * Z8  + 1.0000000000000000 Z0 * Z46  ] <= 50.000000
c11: [ 1.0000000000000000 Z0 * Z9  + 1.0000000000000000 Z0 * Z10  + 1.0000000000000000 Z0 * Z11  + 1.0000000000000000 Z0 * Z12  + 1.0000000000000000 Z0 * Z47  ] <= 47.500000
c12: [ 1.0000000000000000 Z0 * Z13  + 1.0000000000000000 Z0 * Z14  + 1.0000000000000000 Z0 * Z15  + 1.0000000000000000 Z0 * Z16  + 1.0000000000000000 Z0 * Z48  ] <= 28.000000
c13: [ 1.0000000000000000 Z0 * Z17  + 1.0000000000000000 Z0 * Z18  + 1.0000000000000000 Z0 * Z19  + 1.0000000000000000 Z0 * Z20  + 1.0000000000000000 Z0 * Z49  ] <= 100.000000
c14: [ 1.0000000000000000 Z0 * Z21  + 1.0000000000000000 Z0 * Z22  + 1.0000000000000000 Z0 * Z23  + 1.0000000000000000 Z0 * Z24  + 1.0000000000000000 Z0 * Z50  ] <= 30.000000
c15: [ 1.0000000000000000 Z0 * Z25  + 1.0000000000000000 Z0 * Z26  + 1.0000000000000000 Z0 * Z27  + 1.0000000000000000 Z0 * Z28  + 1.0000000000000000 Z0 * Z51  ] <= 25.000000
c16: [ 1.0000000000000000 Z0 * Z29  + 1.0000000000000000 Z0 * Z33  + 1.0000000000000000 Z0 * Z34  + 1.0000000000000000 Z0 * Z35 -300.5000000000000000 Z0 * Z115  ] <= 0.000000
c17: [ 1.0000000000000000 Z0 * Z30  + 1.0000000000000000 Z0 * Z36  + 1.0000000000000000 Z0 * Z37  + 1.0000000000000000 Z0 * Z38 -300.5000000000000000 Z0 * Z116  ] <= 0.000000
c18: [ 1.0000000000000000 Z0 * Z31  + 1.0000000000000000 Z0 * Z39  + 1.0000000000000000 Z0 * Z40  + 1.0000000000000000 Z0 * Z41 -300.5000000000000000 Z0 * Z117  ] <= 0.000000
c19: [ 1.0000000000000000 Z0 * Z32  + 1.0000000000000000 Z0 * Z42  + 1.0000000000000000 Z0 * Z43  + 1.0000000000000000 Z0 * Z44 -300.5000000000000000 Z0 * Z118  ] <= 0.000000
c20: [ -1.0000000000000000 Z0 * Z29 -1.0000000000000000 Z0 * Z30 -1.0000000000000000 Z0 * Z31 -1.0000000000000000 Z0 * Z32 -1.0000000000000000 Z0 * Z45 -1.0000000000000000 Z0 * Z46 -1.0000000000000000 Z0 * Z47 -1.0000000000000000 Z0 * Z48 -1.0000000000000000 Z0 * Z49 -1.0000000000000000 Z0 * Z50 -1.0000000000000000 Z0 * Z51  ] <= -300.500000
c21: [ 1.0000000000000000 Z0 * Z29  + 1.0000000000000000 Z0 * Z30  + 1.0000000000000000 Z0 * Z31  + 1.0000000000000000 Z0 * Z32  + 1.0000000000000000 Z0 * Z45  + 1.0000000000000000 Z0 * Z46  + 1.0000000000000000 Z0 * Z47  + 1.0000000000000000 Z0 * Z48  + 1.0000000000000000 Z0 * Z49  + 1.0000000000000000 Z0 * Z50  + 1.0000000000000000 Z0 * Z51  ] <= 300.500000
c22: [ 1.0000000000000000 Z0 * Z1  + 1.0000000000000000 Z0 * Z5  + 1.0000000000000000 Z0 * Z9  + 1.0000000000000000 Z0 * Z13  + 1.0000000000000000 Z0 * Z17  + 1.0000000000000000 Z0 * Z21  + 1.0000000000000000 Z0 * Z25 -1.0000000000000000 Z0 * Z29 -1.0000000000000000 Z0 * Z33 -1.0000000000000000 Z0 * Z34 -1.0000000000000000 Z0 * Z35  + 1.0000000000000000 Z0 * Z36  + 1.0000000000000000 Z0 * Z39  + 1.0000000000000000 Z0 * Z42  ] = 0.000000
c23: [ 1.0000000000000000 Z0 * Z2  + 1.0000000000000000 Z0 * Z6  + 1.0000000000000000 Z0 * Z10  + 1.0000000000000000 Z0 * Z14  + 1.0000000000000000 Z0 * Z18  + 1.0000000000000000 Z0 * Z22  + 1.0000000000000000 Z0 * Z26 -1.0000000000000000 Z0 * Z30  + 1.0000000000000000 Z0 * Z33 -1.0000000000000000 Z0 * Z36 -1.0000000000000000 Z0 * Z37 -1.0000000000000000 Z0 * Z38  + 1.0000000000000000 Z0 * Z40  + 1.0000000000000000 Z0 * Z43  ] = 0.000000
c24: [ 1.0000000000000000 Z0 * Z3  + 1.0000000000000000 Z0 * Z7  + 1.0000000000000000 Z0 * Z11  + 1.0000000000000000 Z0 * Z15  + 1.0000000000000000 Z0 * Z19  + 1.0000000000000000 Z0 * Z23  + 1.0000000000000000 Z0 * Z27 -1.0000000000000000 Z0 * Z31  + 1.0000000000000000 Z0 * Z34  + 1.0000000000000000 Z0 * Z37 -1.0000000000000000 Z0 * Z39 -1.0000000000000000 Z0 * Z40 -1.0000000000000000 Z0 * Z41  + 1.0000000000000000 Z0 * Z44  ] = 0.000000
c25: [ 1.0000000000000000 Z0 * Z4  + 1.0000000000000000 Z0 * Z8  + 1.0000000000000000 Z0 * Z12  + 1.0000000000000000 Z0 * Z16  + 1.0000000000000000 Z0 * Z20  + 1.0000000000000000 Z0 * Z24  + 1.0000000000000000 Z0 * Z28 -1.0000000000000000 Z0 * Z32  + 1.0000000000000000 Z0 * Z35  + 1.0000000000000000 Z0 * Z38  + 1.0000000000000000 Z0 * Z41 -1.0000000000000000 Z0 * Z42 -1.0000000000000000 Z0 * Z43 -1.0000000000000000 Z0 * Z44  ] = 0.000000
c26: [ 1.0000000000000000 Z0 * Z1  + 8.0000000000000107 Z0 * Z5  + 4.0000000000000000 Z0 * Z9  + 12.0000000000000000 Z0 * Z13  + 5.0000000000000000 Z0 * Z17  + 0.5000000000000000 Z0 * Z21  + 10.0000000000000000 Z0 * Z25 -1.0000000000000000 Z29 * Z52 -1.0000000000000000 Z33 * Z52 -1.0000000000000000 Z34 * Z52 -1.0000000000000000 Z35 * Z52  + 0.0100000000000000 Z36 * Z55  + 0.0100000000000000 Z39 * Z58  + 0.0100000000000000 Z42 * Z61  ] = 0.000000
c27: [ 50.0000000000000000 Z0 * Z1  + 175.0000000000000000 Z0 * Z5  + 8.0000000000000000 Z0 * Z9  + 100.0000000000000000 Z0 * Z13  + 70.0000000000000000 Z0 * Z17  + 10.0000000000000000 Z0 * Z21  + 5.0000000000000000 Z0 * Z25 -1.0000000000000000 Z29 * Z53 -1.0000000000000000 Z33 * Z53 -1.0000000000000000 Z34 * Z53 -1.0000000000000000 Z35 * Z53  + 0.1000000000000000 Z36 * Z56  + 0.1000000000000000 Z39 * Z59  + 0.1000000000000000 Z42 * Z62  ] = 0.000000
c28: [ 25.0000000000000000 Z0 * Z1  + 100.0000000000000000 Z0 * Z5  + 5.0000000000000000 Z0 * Z9  + 20.0000000000000000 Z0 * Z13  + 12.5000000000000000 Z0 * Z17  + 2.5000000000000000 Z0 * Z21  + 7.5000000000000098 Z0 * Z25 -1.0000000000000000 Z29 * Z54 -1.0000000000000000 Z33 * Z54 -1.0000000000000000 Z34 * Z54 -1.0000000000000000 Z35 * Z54  + 0.0500000000000000 Z36 * Z57  + 0.0500000000000000 Z39 * Z60  + 0.0500000000000000 Z42 * Z63  ] = 0.000000
c29: [ 100.0000000000000000 Z0 * Z2  + 800.0000000000000000 Z0 * Z6  + 400.0000000000000000 Z0 * Z10  + 1200.0000000000000000 Z0 * Z14  + 500.0000000000000000 Z0 * Z18  + 50.0000000000000000 Z0 * Z22  + 1000.0000000000000000 Z0 * Z26 -1.0000000000000000 Z30 * Z55  + 1.0000000000000000 Z33 * Z52 -1.0000000000000000 Z36 * Z55 -1.0000000000000000 Z37 * Z55 -1.0000000000000000 Z38 * Z55  + 1.0000000000000000 Z40 * Z58  + 1.0000000000000000 Z43 * Z61  ] = 0.000000
c30: [ 65.0000000000000000 Z0 * Z2  + 227.5000000000000000 Z0 * Z6  + 10.4000000000000004 Z0 * Z10  + 130.0000000000000000 Z0 * Z14  + 91.0000000000000000 Z0 * Z18  + 13.0000000000000000 Z0 * Z22  + 6.5000000000000000 Z0 * Z26 -1.0000000000000000 Z30 * Z56  + 0.1300000000000000 Z33 * Z53 -1.0000000000000000 Z36 * Z56 -1.0000000000000000 Z37 * Z56 -1.0000000000000000 Z38 * Z56  + 0.1300000000000000 Z40 * Z59  + 0.1300000000000000 Z43 * Z62  ] = 0.000000
c31: [ 50.0000000000000000 Z0 * Z2  + 200.0000000000000000 Z0 * Z6  + 10.0000000000000000 Z0 * Z10  + 40.0000000000000000 Z0 * Z14  + 25.0000000000000000 Z0 * Z18  + 5.0000000000000000 Z0 * Z22  + 15.0000000000000000 Z0 * Z26 -1.0000000000000000 Z30 * Z57  + 0.1000000000000000 Z33 * Z54 -1.0000000000000000 Z36 * Z57 -1.0000000000000000 Z37 * Z57 -1.0000000000000000 Z38 * Z57  + 0.1000000000000000 Z40 * Z60  + 0.1000000000000000 Z43 * Z63  ] = 0.000000
c32: [ 90.0000000000000000 Z0 * Z3  + 720.0000000000000000 Z0 * Z7  + 360.0000000000000000 Z0 * Z11  + 1080.0000000000000000 Z0 * Z15  + 450.0000000000000000 Z0 * Z19  + 45.0000000000000000 Z0 * Z23  + 900.0000000000000000 Z0 * Z27 -1.0000000000000000 Z31 * Z58  + 0.9000000000000000 Z34 * Z52  + 0.9000000000000000 Z37 * Z55 -1.0000000000000000 Z39 * Z58 -1.0000000000000000 Z40 * Z58 -1.0000000000000000 Z41 * Z58  + 0.9000000000000000 Z44 * Z61  ] = 0.000000
c33: [ 5.0000000000000000 Z0 * Z3  + 17.5000000000000000 Z0 * Z7  + 0.8000000000000010 Z0 * Z11  + 10.0000000000000000 Z0 * Z15  + 7.0000000000000098 Z0 * Z19  + 1.0000000000000000 Z0 * Z23  + 0.5000000000000000 Z0 * Z27 -1.0000000000000000 Z31 * Z59  + 0.0100000000000000 Z34 * Z53  + 0.0100000000000000 Z37 * Z56 -1.0000000000000000 Z39 * Z59 -1.0000000000000000 Z40 * Z59 -1.0000000000000000 Z41 * Z59  + 0.0100000000000000 Z44 * Z62  ] = 0.000000
c34: [ 500.0000000000000000 Z0 * Z3  + 2000.0000000000000000 Z0 * Z7  + 100.0000000000000000 Z0 * Z11  + 400.0000000000000000 Z0 * Z15  + 250.0000000000000000 Z0 * Z19  + 50.0000000000000000 Z0 * Z23  + 150.0000000000000000 Z0 * Z27 -1.0000000000000000 Z31 * Z60  + 1.0000000000000000 Z34 * Z54  + 1.0000000000000000 Z37 * Z57 -1.0000000000000000 Z39 * Z60 -1.0000000000000000 Z40 * Z60 -1.0000000000000000 Z41 * Z60  + 1.0000000000000000 Z44 * Z63  ] = 0.000000
c35: [ 30.0000000000000000 Z0 * Z4  + 240.0000000000000000 Z0 * Z8  + 120.0000000000000000 Z0 * Z12  + 360.0000000000000000 Z0 * Z16  + 150.0000000000000000 Z0 * Z20  + 15.0000000000000000 Z0 * Z24  + 300.0000000000000000 Z0 * Z28 -1.0000000000000000 Z32 * Z61  + 0.3000000000000000 Z35 * Z52  + 0.3000000000000000 Z38 * Z55  + 0.3000000000000000 Z41 * Z58 -1.0000000000000000 Z42 * Z61 -1.0000000000000000 Z43 * Z61 -1.0000000000000000 Z44 * Z61  ] = 0.000000
c36: [ 400.0000000000000000 Z0 * Z4  + 1400.0000000000000000 Z0 * Z8  + 64.0000000000000000 Z0 * Z12  + 800.0000000000000000 Z0 * Z16  + 560.0000000000000000 Z0 * Z20  + 80.0000000000000000 Z0 * Z24  + 40.0000000000000000 Z0 * Z28 -1.0000000000000000 Z32 * Z62  + 0.8000000000000000 Z35 * Z53  + 0.8000000000000000 Z38 * Z56  + 0.8000000000000000 Z41 * Z59 -1.0000000000000000 Z42 * Z62 -1.0000000000000000 Z43 * Z62 -1.0000000000000000 Z44 * Z62  ] = 0.000000
c37: [ 350.0000000000000000 Z0 * Z4  + 1400.0000000000000000 Z0 * Z8  + 70.0000000000000000 Z0 * Z12  + 280.0000000000000000 Z0 * Z16  + 175.0000000000000000 Z0 * Z20  + 35.0000000000000000 Z0 * Z24  + 105.0000000000000000 Z0 * Z28 -1.0000000000000000 Z32 * Z63  + 0.7000000000000000 Z35 * Z54  + 0.7000000000000000 Z38 * Z57  + 0.7000000000000000 Z41 * Z60 -1.0000000000000000 Z42 * Z63 -1.0000000000000000 Z43 * Z63 -1.0000000000000000 Z44 * Z63  ] = 0.000000
c38: [ -5.0000000000000000 Z0 * Z29 -5.0000000000000000 Z0 * Z30 -5.0000000000000000 Z0 * Z31 -5.0000000000000000 Z0 * Z32  + 95.0000000000000000 Z0 * Z45  + 795.0000000000000000 Z0 * Z46  + 395.0000000000000000 Z0 * Z47  + 1195.0000000000000000 Z0 * Z48  + 495.0000000000000000 Z0 * Z49  + 45.0000000000000000 Z0 * Z50  + 995.0000000000000000 Z0 * Z51  + 1.0000000000000000 Z29 * Z52  + 1.0000000000000000 Z30 * Z55  + 1.0000000000000000 Z31 * Z58  + 1.0000000000000000 Z32 * Z61  ] <= 0.000000
c39: [ -5.0000000000000000 Z0 * Z29 -5.0000000000000000 Z0 * Z30 -5.0000000000000000 Z0 * Z31 -5.0000000000000000 Z0 * Z32  + 495.0000000000000000 Z0 * Z45  + 1745.0000000000000000 Z0 * Z46  + 75.0000000000000000 Z0 * Z47  + 995.0000000000000000 Z0 * Z48  + 695.0000000000000000 Z0 * Z49  + 95.0000000000000000 Z0 * Z50  + 45.0000000000000000 Z0 * Z51  + 1.0000000000000000 Z29 * Z53  + 1.0000000000000000 Z30 * Z56  + 1.0000000000000000 Z31 * Z59  + 1.0000000000000000 Z32 * Z62  ] <= 0.000000
c40: [ -10.0000000000000000 Z0 * Z29 -10.0000000000000000 Z0 * Z30 -10.0000000000000000 Z0 * Z31 -10.0000000000000000 Z0 * Z32  + 490.0000000000000000 Z0 * Z45  + 1990.0000000000000000 Z0 * Z46  + 90.0000000000000000 Z0 * Z47  + 390.0000000000000000 Z0 * Z48  + 240.0000000000000000 Z0 * Z49  + 40.0000000000000000 Z0 * Z50  + 140.0000000000000000 Z0 * Z51  + 1.0000000000000000 Z29 * Z54  + 1.0000000000000000 Z30 * Z57  + 1.0000000000000000 Z31 * Z60  + 1.0000000000000000 Z32 * Z63  ] <= 0.000000
c41: [ 1.0000000000000000 Z0 * Z1 -0.2000000000000000 Z0 * Z64  ] >= 0.000000
c42: [ 1.0000000000000000 Z0 * Z2 -0.2000000000000000 Z0 * Z65  ] >= 0.000000
c43: [ 1.0000000000000000 Z0 * Z3 -0.2000000000000000 Z0 * Z66  ] >= 0.000000
c44: [ 1.0000000000000000 Z0 * Z4 -0.2000000000000000 Z0 * Z67  ] >= 0.000000
c45: [ 1.0000000000000000 Z0 * Z5 -0.2000000000000000 Z0 * Z68  ] >= 0.000000
c46: [ 1.0000000000000000 Z0 * Z6 -0.2000000000000000 Z0 * Z69  ] >= 0.000000
c47: [ 1.0000000000000000 Z0 * Z7 -0.2000000000000000 Z0 * Z70  ] >= 0.000000
c48: [ 1.0000000000000000 Z0 * Z8 -0.2000000000000000 Z0 * Z71  ] >= 0.000000
c49: [ 1.0000000000000000 Z0 * Z9 -0.2000000000000000 Z0 * Z72  ] >= 0.000000
c50: [ 1.0000000000000000 Z0 * Z10 -0.2000000000000000 Z0 * Z73  ] >= 0.000000
c51: [ 1.0000000000000000 Z0 * Z11 -0.2000000000000000 Z0 * Z74  ] >= 0.000000
c52: [ 1.0000000000000000 Z0 * Z12 -0.2000000000000000 Z0 * Z75  ] >= 0.000000
c53: [ 1.0000000000000000 Z0 * Z13 -0.2000000000000000 Z0 * Z76  ] >= 0.000000
c54: [ 1.0000000000000000 Z0 * Z14 -0.2000000000000000 Z0 * Z77  ] >= 0.000000
c55: [ 1.0000000000000000 Z0 * Z15 -0.2000000000000000 Z0 * Z78  ] >= 0.000000
c56: [ 1.0000000000000000 Z0 * Z16 -0.2000000000000000 Z0 * Z79  ] >= 0.000000
c57: [ 1.0000000000000000 Z0 * Z17 -0.2000000000000000 Z0 * Z80  ] >= 0.000000
c58: [ 1.0000000000000000 Z0 * Z18 -0.2000000000000000 Z0 * Z81  ] >= 0.000000
c59: [ 1.0000000000000000 Z0 * Z19 -0.2000000000000000 Z0 * Z82  ] >= 0.000000
c60: [ 1.0000000000000000 Z0 * Z20 -0.2000000000000000 Z0 * Z83  ] >= 0.000000
c61: [ 1.0000000000000000 Z0 * Z21 -0.2000000000000000 Z0 * Z84  ] >= 0.000000
c62: [ 1.0000000000000000 Z0 * Z22 -0.2000000000000000 Z0 * Z85  ] >= 0.000000
c63: [ 1.0000000000000000 Z0 * Z23 -0.2000000000000000 Z0 * Z86  ] >= 0.000000
c64: [ 1.0000000000000000 Z0 * Z24 -0.2000000000000000 Z0 * Z87  ] >= 0.000000
c65: [ 1.0000000000000000 Z0 * Z25 -0.2000000000000000 Z0 * Z88  ] >= 0.000000
c66: [ 1.0000000000000000 Z0 * Z26 -0.2000000000000000 Z0 * Z89  ] >= 0.000000
c67: [ 1.0000000000000000 Z0 * Z27 -0.2000000000000000 Z0 * Z90  ] >= 0.000000
c68: [ 1.0000000000000000 Z0 * Z28 -0.2000000000000000 Z0 * Z91  ] >= 0.000000
c69: [ 1.0000000000000000 Z0 * Z1 -20.0000000000000000 Z0 * Z64  ] <= 0.000000
c70: [ 1.0000000000000000 Z0 * Z2 -20.0000000000000000 Z0 * Z65  ] <= 0.000000
c71: [ 1.0000000000000000 Z0 * Z3 -20.0000000000000000 Z0 * Z66  ] <= 0.000000
c72: [ 1.0000000000000000 Z0 * Z4 -20.0000000000000000 Z0 * Z67  ] <= 0.000000
c73: [ 1.0000000000000000 Z0 * Z5 -50.0000000000000000 Z0 * Z68  ] <= 0.000000
c74: [ 1.0000000000000000 Z0 * Z6 -50.0000000000000000 Z0 * Z69  ] <= 0.000000
c75: [ 1.0000000000000000 Z0 * Z7 -50.0000000000000000 Z0 * Z70  ] <= 0.000000
c76: [ 1.0000000000000000 Z0 * Z8 -50.0000000000000000 Z0 * Z71  ] <= 0.000000
c77: [ 1.0000000000000000 Z0 * Z9 -47.5000000000000000 Z0 * Z72  ] <= 0.000000
c78: [ 1.0000000000000000 Z0 * Z10 -47.5000000000000000 Z0 * Z73  ] <= 0.000000
c79: [ 1.0000000000000000 Z0 * Z11 -47.5000000000000000 Z0 * Z74  ] <= 0.000000
c80: [ 1.0000000000000000 Z0 * Z12 -47.5000000000000000 Z0 * Z75  ] <= 0.000000
c81: [ 1.0000000000000000 Z0 * Z13 -28.0000000000000000 Z0 * Z76  ] <= 0.000000
c82: [ 1.0000000000000000 Z0 * Z14 -28.0000000000000000 Z0 * Z77  ] <= 0.000000
c83: [ 1.0000000000000000 Z0 * Z15 -28.0000000000000000 Z0 * Z78  ] <= 0.000000
c84: [ 1.0000000000000000 Z0 * Z16 -28.0000000000000000 Z0 * Z79  ] <= 0.000000
c85: [ 1.0000000000000000 Z0 * Z17 -100.0000000000000000 Z0 * Z80  ] <= 0.000000
c86: [ 1.0000000000000000 Z0 * Z18 -100.0000000000000000 Z0 * Z81  ] <= 0.000000
c87: [ 1.0000000000000000 Z0 * Z19 -100.0000000000000000 Z0 * Z82  ] <= 0.000000
c88: [ 1.0000000000000000 Z0 * Z20 -100.0000000000000000 Z0 * Z83  ] <= 0.000000
c89: [ 1.0000000000000000 Z0 * Z21 -30.0000000000000000 Z0 * Z84  ] <= 0.000000
c90: [ 1.0000000000000000 Z0 * Z22 -30.0000000000000000 Z0 * Z85  ] <= 0.000000
c91: [ 1.0000000000000000 Z0 * Z23 -30.0000000000000000 Z0 * Z86  ] <= 0.000000
c92: [ 1.0000000000000000 Z0 * Z24 -30.0000000000000000 Z0 * Z87  ] <= 0.000000
c93: [ 1.0000000000000000 Z0 * Z25 -25.0000000000000000 Z0 * Z88  ] <= 0.000000
c94: [ 1.0000000000000000 Z0 * Z26 -25.0000000000000000 Z0 * Z89  ] <= 0.000000
c95: [ 1.0000000000000000 Z0 * Z27 -25.0000000000000000 Z0 * Z90  ] <= 0.000000
c96: [ 1.0000000000000000 Z0 * Z28 -25.0000000000000000 Z0 * Z91  ] <= 0.000000
c97: [ 1.0000000000000000 Z0 * Z29 -0.2000000000000000 Z0 * Z92  ] >= 0.000000
c98: [ 1.0000000000000000 Z0 * Z30 -0.2000000000000000 Z0 * Z93  ] >= 0.000000
c99: [ 1.0000000000000000 Z0 * Z31 -0.2000000000000000 Z0 * Z94  ] >= 0.000000
c100: [ 1.0000000000000000 Z0 * Z32 -0.2000000000000000 Z0 * Z95  ] >= 0.000000
c101: [ 1.0000000000000000 Z0 * Z29 -300.5000000000000000 Z0 * Z92  ] <= 0.000000
c102: [ 1.0000000000000000 Z0 * Z30 -300.5000000000000000 Z0 * Z93  ] <= 0.000000
c103: [ 1.0000000000000000 Z0 * Z31 -300.5000000000000000 Z0 * Z94  ] <= 0.000000
c104: [ 1.0000000000000000 Z0 * Z32 -300.5000000000000000 Z0 * Z95  ] <= 0.000000
c105: [ 1.0000000000000000 Z0 * Z45 -0.2000000000000000 Z0 * Z108  ] >= 0.000000
c106: [ 1.0000000000000000 Z0 * Z46 -0.2000000000000000 Z0 * Z109  ] >= 0.000000
c107: [ 1.0000000000000000 Z0 * Z47 -0.2000000000000000 Z0 * Z110  ] >= 0.000000
c108: [ 1.0000000000000000 Z0 * Z48 -0.2000000000000000 Z0 * Z111  ] >= 0.000000
c109: [ 1.0000000000000000 Z0 * Z49 -0.2000000000000000 Z0 * Z112  ] >= 0.000000
c110: [ 1.0000000000000000 Z0 * Z50 -0.2000000000000000 Z0 * Z113  ] >= 0.000000
c111: [ 1.0000000000000000 Z0 * Z51 -0.2000000000000000 Z0 * Z114  ] >= 0.000000
c112: [ 1.0000000000000000 Z0 * Z45 -20.0000000000000000 Z0 * Z108  ] <= 0.000000
c113: [ 1.0000000000000000 Z0 * Z46 -50.0000000000000000 Z0 * Z109  ] <= 0.000000
c114: [ 1.0000000000000000 Z0 * Z47 -47.5000000000000000 Z0 * Z110  ] <= 0.000000
c115: [ 1.0000000000000000 Z0 * Z48 -28.0000000000000000 Z0 * Z111  ] <= 0.000000
c116: [ 1.0000000000000000 Z0 * Z49 -100.0000000000000000 Z0 * Z112  ] <= 0.000000
c117: [ 1.0000000000000000 Z0 * Z50 -30.0000000000000000 Z0 * Z113  ] <= 0.000000
c118: [ 1.0000000000000000 Z0 * Z51 -25.0000000000000000 Z0 * Z114  ] <= 0.000000
c119: [ 1.0000000000000000 Z0 * Z36 -0.2000000000000000 Z0 * Z99  ] >= 0.000000
c120: [ 1.0000000000000000 Z0 * Z39 -0.2000000000000000 Z0 * Z102  ] >= 0.000000
c121: [ 1.0000000000000000 Z0 * Z42 -0.2000000000000000 Z0 * Z105  ] >= 0.000000
c122: [ 1.0000000000000000 Z0 * Z33 -0.2000000000000000 Z0 * Z96  ] >= 0.000000
c123: [ 1.0000000000000000 Z0 * Z40 -0.2000000000000000 Z0 * Z103  ] >= 0.000000
c124: [ 1.0000000000000000 Z0 * Z43 -0.2000000000000000 Z0 * Z106  ] >= 0.000000
c125: [ 1.0000000000000000 Z0 * Z34 -0.2000000000000000 Z0 * Z97  ] >= 0.000000
c126: [ 1.0000000000000000 Z0 * Z37 -0.2000000000000000 Z0 * Z100  ] >= 0.000000
c127: [ 1.0000000000000000 Z0 * Z44 -0.2000000000000000 Z0 * Z107  ] >= 0.000000
c128: [ 1.0000000000000000 Z0 * Z35 -0.2000000000000000 Z0 * Z98  ] >= 0.000000
c129: [ 1.0000000000000000 Z0 * Z38 -0.2000000000000000 Z0 * Z101  ] >= 0.000000
c130: [ 1.0000000000000000 Z0 * Z41 -0.2000000000000000 Z0 * Z104  ] >= 0.000000
c131: [ 1.0000000000000000 Z0 * Z36 -300.5000000000000000 Z0 * Z99  ] <= 0.000000
c132: [ 1.0000000000000000 Z0 * Z39 -300.5000000000000000 Z0 * Z102  ] <= 0.000000
c133: [ 1.0000000000000000 Z0 * Z42 -300.5000000000000000 Z0 * Z105  ] <= 0.000000
c134: [ 1.0000000000000000 Z0 * Z33 -300.5000000000000000 Z0 * Z96  ] <= 0.000000
c135: [ 1.0000000000000000 Z0 * Z40 -300.5000000000000000 Z0 * Z103  ] <= 0.000000
c136: [ 1.0000000000000000 Z0 * Z43 -300.5000000000000000 Z0 * Z106  ] <= 0.000000
c137: [ 1.0000000000000000 Z0 * Z34 -300.5000000000000000 Z0 * Z97  ] <= 0.000000
c138: [ 1.0000000000000000 Z0 * Z37 -300.5000000000000000 Z0 * Z100  ] <= 0.000000
c139: [ 1.0000000000000000 Z0 * Z44 -300.5000000000000000 Z0 * Z107  ] <= 0.000000
c140: [ 1.0000000000000000 Z0 * Z35 -300.5000000000000000 Z0 * Z98  ] <= 0.000000
c141: [ 1.0000000000000000 Z0 * Z38 -300.5000000000000000 Z0 * Z101  ] <= 0.000000
c142: [ 1.0000000000000000 Z0 * Z41 -300.5000000000000000 Z0 * Z104  ] <= 0.000000
ac1: Z0 - 1 = 0
Bounds
1 <= Z0 <= 1
0.0000000000000000 <= Z1 <= 20.0000000000000000
0.0000000000000000 <= Z2 <= 20.0000000000000000
0.0000000000000000 <= Z3 <= 20.0000000000000000
0.0000000000000000 <= Z4 <= 20.0000000000000000
0.0000000000000000 <= Z5 <= 50.0000000000000000
0.0000000000000000 <= Z6 <= 50.0000000000000000
0.0000000000000000 <= Z7 <= 50.0000000000000000
0.0000000000000000 <= Z8 <= 50.0000000000000000
0.0000000000000000 <= Z9 <= 47.5000000000000000
0.0000000000000000 <= Z10 <= 47.5000000000000000
0.0000000000000000 <= Z11 <= 47.5000000000000000
0.0000000000000000 <= Z12 <= 47.5000000000000000
0.0000000000000000 <= Z13 <= 28.0000000000000000
0.0000000000000000 <= Z14 <= 28.0000000000000000
0.0000000000000000 <= Z15 <= 28.0000000000000000
0.0000000000000000 <= Z16 <= 28.0000000000000000
0.0000000000000000 <= Z17 <= 100.0000000000000000
0.0000000000000000 <= Z18 <= 100.0000000000000000
0.0000000000000000 <= Z19 <= 100.0000000000000000
0.0000000000000000 <= Z20 <= 100.0000000000000000
0.0000000000000000 <= Z21 <= 30.0000000000000000
0.0000000000000000 <= Z22 <= 30.0000000000000000
0.0000000000000000 <= Z23 <= 30.0000000000000000
0.0000000000000000 <= Z24 <= 30.0000000000000000
0.0000000000000000 <= Z25 <= 25.0000000000000000
0.0000000000000000 <= Z26 <= 25.0000000000000000
0.0000000000000000 <= Z27 <= 25.0000000000000000
0.0000000000000000 <= Z28 <= 25.0000000000000000
0.0000000000000000 <= Z29 <= 300.5000000000000000
0.0000000000000000 <= Z30 <= 300.5000000000000000
0.0000000000000000 <= Z31 <= 300.5000000000000000
0.0000000000000000 <= Z32 <= 300.5000000000000000
0.0000000000000000 <= Z33 <= 300.5000000000000000
0.0000000000000000 <= Z34 <= 300.5000000000000000
0.0000000000000000 <= Z35 <= 300.5000000000000000
0.0000000000000000 <= Z36 <= 300.5000000000000000
0.0000000000000000 <= Z37 <= 300.5000000000000000
0.0000000000000000 <= Z38 <= 300.5000000000000000
0.0000000000000000 <= Z39 <= 300.5000000000000000
0.0000000000000000 <= Z40 <= 300.5000000000000000
0.0000000000000000 <= Z41 <= 300.5000000000000000
0.0000000000000000 <= Z42 <= 300.5000000000000000
0.0000000000000000 <= Z43 <= 300.5000000000000000
0.0000000000000000 <= Z44 <= 300.5000000000000000
0.0000000000000000 <= Z45 <= 20.0000000000000000
0.0000000000000000 <= Z46 <= 50.0000000000000000
0.0000000000000000 <= Z47 <= 47.5000000000000000
0.0000000000000000 <= Z48 <= 28.0000000000000000
0.0000000000000000 <= Z49 <= 100.0000000000000000
0.0000000000000000 <= Z50 <= 30.0000000000000000
0.0000000000000000 <= Z51 <= 25.0000000000000000
0.0000000000000000 <= Z52 <= 12.0000000000000000
0.0000000000000000 <= Z53 <= 175.0000000000000000
0.0000000000000000 <= Z54 <= 100.0000000000000000
0.0000000000000000 <= Z55 <= 1200.0000000000000000
0.0000000000000000 <= Z56 <= 227.5000000000000000
0.0000000000000000 <= Z57 <= 200.0000000000000000
0.0000000000000000 <= Z58 <= 1080.0000000000000000
0.0000000000000000 <= Z59 <= 17.5000000000000000
0.0000000000000000 <= Z60 <= 2000.0000000000000000
0.0000000000000000 <= Z61 <= 360.0000000000000000
0.0000000000000000 <= Z62 <= 1400.0000000000000000
0.0000000000000000 <= Z63 <= 1400.0000000000000000
0.0000000000000000 <= Z64 <= 1.0000000000000000
0.0000000000000000 <= Z65 <= 1.0000000000000000
0.0000000000000000 <= Z66 <= 1.0000000000000000
0.0000000000000000 <= Z67 <= 1.0000000000000000
0.0000000000000000 <= Z68 <= 1.0000000000000000
0.0000000000000000 <= Z69 <= 1.0000000000000000
0.0000000000000000 <= Z70 <= 1.0000000000000000
0.0000000000000000 <= Z71 <= 1.0000000000000000
0.0000000000000000 <= Z72 <= 1.0000000000000000
0.0000000000000000 <= Z73 <= 1.0000000000000000
0.0000000000000000 <= Z74 <= 1.0000000000000000
0.0000000000000000 <= Z75 <= 1.0000000000000000
0.0000000000000000 <= Z76 <= 1.0000000000000000
0.0000000000000000 <= Z77 <= 1.0000000000000000
0.0000000000000000 <= Z78 <= 1.0000000000000000
0.0000000000000000 <= Z79 <= 1.0000000000000000
0.0000000000000000 <= Z80 <= 1.0000000000000000
0.0000000000000000 <= Z81 <= 1.0000000000000000
0.0000000000000000 <= Z82 <= 1.0000000000000000
0.0000000000000000 <= Z83 <= 1.0000000000000000
0.0000000000000000 <= Z84 <= 1.0000000000000000
0.0000000000000000 <= Z85 <= 1.0000000000000000
0.0000000000000000 <= Z86 <= 1.0000000000000000
0.0000000000000000 <= Z87 <= 1.0000000000000000
0.0000000000000000 <= Z88 <= 1.0000000000000000
0.0000000000000000 <= Z89 <= 1.0000000000000000
0.0000000000000000 <= Z90 <= 1.0000000000000000
0.0000000000000000 <= Z91 <= 1.0000000000000000
0.0000000000000000 <= Z92 <= 1.0000000000000000
0.0000000000000000 <= Z93 <= 1.0000000000000000
0.0000000000000000 <= Z94 <= 1.0000000000000000
0.0000000000000000 <= Z95 <= 1.0000000000000000
0.0000000000000000 <= Z96 <= 1.0000000000000000
0.0000000000000000 <= Z97 <= 1.0000000000000000
0.0000000000000000 <= Z98 <= 1.0000000000000000
0.0000000000000000 <= Z99 <= 1.0000000000000000
0.0000000000000000 <= Z100 <= 1.0000000000000000
0.0000000000000000 <= Z101 <= 1.0000000000000000
0.0000000000000000 <= Z102 <= 1.0000000000000000
0.0000000000000000 <= Z103 <= 1.0000000000000000
0.0000000000000000 <= Z104 <= 1.0000000000000000
0.0000000000000000 <= Z105 <= 1.0000000000000000
0.0000000000000000 <= Z106 <= 1.0000000000000000
0.0000000000000000 <= Z107 <= 1.0000000000000000
0.0000000000000000 <= Z108 <= 1.0000000000000000
0.0000000000000000 <= Z109 <= 1.0000000000000000
0.0000000000000000 <= Z110 <= 1.0000000000000000
0.0000000000000000 <= Z111 <= 1.0000000000000000
0.0000000000000000 <= Z112 <= 1.0000000000000000
0.0000000000000000 <= Z113 <= 1.0000000000000000
0.0000000000000000 <= Z114 <= 1.0000000000000000
0.0000000000000000 <= Z115 <= 1.0000000000000000
0.0000000000000000 <= Z116 <= 1.0000000000000000
0.0000000000000000 <= Z117 <= 1.0000000000000000
0.0000000000000000 <= Z118 <= 1.0000000000000000
-100000000.0000000000000000 <= Z119 <= 100000000.0000000000000000
Binaries
Z64 Z65 Z66 Z67 Z68 Z69 Z70 Z71 Z72 Z73 Z74 Z75 Z76 Z77 Z78 Z79 Z80 Z81 Z82 Z83 Z84 Z85 Z86 Z87 Z88 Z89 Z90 Z91 Z92 Z93 Z94 Z95 Z96 Z97 Z98 Z99 Z100 Z101 Z102 Z103 Z104 Z105 Z106 Z107 Z108 Z109 Z110 Z111 Z112 Z113 Z114 Z115 Z116 Z117 Z118 
End